Route 1: 0 47 62 52 84 12 78 67 19 89 46 90 0
Route 2: 0 9 30 65 91 79 60 54 0
Route 3: 0 51 33 39 44 22 35 85 87 66 6 57 0
Route 4: 0 4 82 80 31 59 73 95 16 7 0
Route 5: 0 100 40 21 63 86 68 0
Route 6: 0 29 13 20 32 11 36 45 38 56 75 98 0
Route 7: 0 99 42 34 27 37 96 25 0
Route 8: 0 1 23 18 2 5 76 77 41 0
Route 9: 0 97 69 71 70 48 10 49 0
Route 10: 0 61 94 50 15 88 53 93 0
Route 11: 0 64 55 92 17 83 74 28 24 43 0
Route 12: 0 72 58 8 26 14 81 3 0
